32      4       
10      10      10      10      
0       0       0       0       0       2       2       31      
4       0       1       1       1       1       3       
6       1       2       4       0       2       4       30      
4       0       3       2       4       3       5       28      29      
8       3       0       3       8       2       6       20      
10      0       4       3       1       2       7       19      
3       3       0       3       2       4       8       25      26      27      
10      0       6       7       4       1       9       
3       1       6       0       5       1       10      
7       7       5       0       7       3       11      23      24      
10      6       4       0       3       1       12      
10      2       3       0       2       2       13      22      
6       3       6       0       5       1       14      
8       6       2       5       0       1       15      
8       0       3       4       7       1       16      
8       0       2       4       7       1       17      
7       0       4       5       3       1       18      
7       4       3       3       0       1       21      
4       8       0       3       3       1       25      
8       0       8       2       2       1       25      
1       2       0       3       8       1       32      
3       0       4       5       5       1       32      
9       6       0       10      4       1       32      
9       0       4       4       4       1       32      
10      2       0       5       4       1       32      
3       4       2       4       0       1       32      
9       4       5       0       3       1       32      
6       6       6       0       3       1       32      
5       0       6       3       2       1       32      
10      0       4       5       3       1       32      
3       0       3       4       4       1       32      
0       0       0       0       0       0       
